100
32
8
2
12
8
8
8
4
2
7
11
5
25
14
6
1
1
21
12
16
15
5
4
17
17
20
12
20
4
22
1
23
16
23
5
24
6
5
26
4
9
23
28
5
1
1
2
10
16
4
8
11
15
3
18
10
15
22
12
10
22
4
5
15
18
28
27
21
18
4
5
3
2
27
27
20
2
6
20
3
1
24
20
21
3
1
5
8
7
7
29
4
10
25
4
17
3
7
12
14
13